32      4       
17      22      12      10      
0       0       0       0       0       3       2       3       4       
8       6       0       0       0       3       5       11      12      
6       0       8       0       0       3       5       7       22      
2       0       0       7       0       3       8       10      16      
6       0       0       1       0       3       6       9       17      
4       0       8       0       0       2       14      24      
4       0       2       0       0       3       15      19      21      
7       0       5       0       0       3       13      14      15      
3       9       0       0       0       3       18      20      27      
8       0       1       0       0       3       15      19      25      
5       0       0       0       7       3       16      17      20      
10      0       0       3       0       3       13      18      23      
6       10      0       0       0       3       19      20      22      
10      1       0       0       0       2       18      30      
7       5       0       0       0       2       17      26      
4       6       0       0       0       3       21      22      23      
9       0       0       0       5       1       28      
5       0       0       2       0       1       31      
4       0       9       0       0       1       29      
6       0       7       0       0       1       21      
1       0       0       0       9       2       25      31      
4       0       5       0       0       2       24      27      
8       0       7       0       0       3       24      25      27      
6       2       0       0       0       2       26      31      
2       0       1       0       0       2       26      28      
5       0       0       0       10      2       29      30      
9       0       0       9       0       2       28      29      
10      0       6       0       0       1       30      
3       0       0       8       0       1       32      
10      0       0       4       0       1       32      
7       0       0       4       0       1       32      
0       0       0       0       0       0       